NAME : XML100_3361_16
DIMENSION : 101
NB_CLUSTERS : 10
CLUSTERING_ALG : DBSCAN
CLUSTERING_PARAMS : eps(87), minSamples(3)
CLUSTERS
1 0
2 1 12 28 32 36 41 43 54 56 57 58 61 68 71 79 87 90 94 98 99
3 3 4 6 8 13 14 16 18 20 22 24 30 33 34 37 38 40 44 45 48 49 50 55 64 65 66 67 69 73 74 75 76 77 80 81 83 84 85 86 89 95 97 100
4 5 25 46
5 7 9 10 59 70 72 92
6 11 15 19 21 26 39 42 52 62 88 93
7 29 47 82
8 17 35 51 53 60 63 78 91 96
9 2 23
10 27 31
EOF